28.6 0.2 3.92 10.39 0.28 2.48 24.56 0.14 2.14 17.38 0.21 3.95
11.98 0.23 2.85 27.07 0.22 2.29 19.4 0.29 3.57 17.97 0.27 3.74
29.48 0.11 4.19 17.34 0.21 4.35 26.96 0.12 4.83 27.35 0.14 3.96
28.02 0.29 3.13 12.31 0.13 3.73 12.89 0.1 2.32 15.44 0.25 3.74
15.87 0.28 4.06 22.95 0.16 3.71 23.42 0.27 4.19 28.83 0.24 3.66
19.57 0.16 4.87 22.82 0.15 4.93 16.33 0.17 2.35 22.58 0.14 2.51
